# CS2
atom_style  full
units   real  
dimension 3
boundary p p p
read_data CS2.data
#restart 10000 h2o.pt

# Define interaction parameters
pair_style lj/cut/coul/long 15.0 
pair_coeff 1 1  0.1013 3.2
pair_coeff 2 2  0.3950 3.52
pair_coeff 1 2  0.2 3.36

kspace_style pppm 1.0e-5

bond_style harmonic
angle_style harmonic
# k1 = 750 N/m
# k2 = 60 N/m
# k_theta/r_e^2 = 23.4 N/m
# r_e = 1.56 angstrom
# 1 kJ/mol = 1000*Na*N*m = 0.23901 kcal/mol
# U_intra = k1/2(delta_r1^2 + delta_r2^2) + k2*delta_r1*delta_r2 + k_theta/2*delta_theta^2
#         = k2/2(delta_r1 + delta_r2)^2 + (k1-k2)/2*(delta_r1^2 + delta_r2^2) + k_theta/2*delta_theta^2
bond_coeff     1     496.57  1.56
bond_coeff     2     43.18   3.12
angle_coeff    1     40.98   180

dump myDump all atom 1000 dump.cs2.nvt.md.12ns.360K

#------------------------ Minimization ---------------------------

min_style cg

minimize 1.0e-7 1.04e-7 1000 1000

# ---------------------- Heating ----------------------------

timestep 1.0

thermo_style custom step temp ke pe etotal

thermo 1000

velocity  all create 100  123456789 units box dist gaussian

compute myRDF all rdf 200 1 1 1 2 2 2


fix NVE1 all nve
run    25000  # equilibration during 25 picoseconds

unfix NVE1

# ---------------------- Equilibration -------------------------

fix NVT2 all nvt temp 100 360 1.0
run    100000  # equilibration during 100 picoseconds
unfix NVT2

# ---------------------- Production -------------------------

fix 1 all ave/time 100 5000 500000 c_myRDF file tmp.rdf mode vector

fix NVT3 all nvt temp 360 360 1.0
run    1200000  # production during 12000 picoseconds or 12 nanoseconds

